data/50_edges.txt
9 80
9 81
10 21
10 38
10 60
10 82
10 83
10 104
10 140
10 68
10 80
10 81
11 12
11 13
11 14
11 15
11 54
11 84
11 85
12 13
12 14
12 15
12 53
12 54
12 55
12 84
12 85
12 41
12 144
12 143
13 14
13 15
13 53
13 54
13 55
13 84
13 85
13 144
13 143
14 15
14 53
14 55
14 84
14 85
14 143
14 144
15 53
15 54
15 52
15 55
